c description: Random 3-CNF over 20 variables and 85 clauses
c generator: CNFgen (0.9.2)
c copyright: (C) 2012-2022 Massimo Lauria <massimo.lauria@uniroma1.it>
c url: https://massimolauria.net/cnfgen
c command line: cnfgen --output CNF_4.28/20_bit_85_997.cnf randkcnf 3 20 85
c
p cnf 20 85
-5 13 -18 0
6 11 15 0
2 3 -14 0
-7 -8 18 0
-2 -7 15 0
-4 -9 -11 0
-9 -11 -17 0
3 -19 -20 0
-2 3 4 0
2 -9 13 0
-4 -7 -13 0
3 7 9 0
-2 -16 17 0
4 -14 19 0
4 10 -18 0
-8 9 -10 0
-3 -12 20 0
1 -9 -16 0
2 7 -15 0
-1 9 -11 0
-1 16 -17 0
6 12 -13 0
13 16 -19 0
-3 -17 -18 0
-6 -8 18 0
8 9 -20 0
7 13 -19 0
1 -4 20 0
13 14 16 0
-6 -10 -17 0
7 10 12 0
-1 -10 19 0
-5 -17 18 0
10 13 16 0
5 -12 17 0
-4 -15 20 0
-3 -6 -20 0
7 -10 -13 0
-7 -10 11 0
2 -6 -15 0
-6 8 12 0
17 18 20 0
5 -6 11 0
4 19 -20 0
4 -6 -9 0
-5 -14 -18 0
1 6 13 0
-4 -17 18 0
6 -10 12 0
-2 13 14 0
-6 14 -17 0
-10 12 -16 0
4 -7 -19 0
3 10 16 0
-1 10 12 0
-1 8 14 0
-16 17 19 0
-2 -6 -19 0
9 12 -20 0
-7 -8 16 0
3 -6 -17 0
5 13 -15 0
-3 -5 -9 0
9 -13 14 0
2 6 9 0
-1 -2 -20 0
-3 12 20 0
-6 -7 -17 0
1 -14 17 0
2 3 7 0
2 -7 -10 0
3 -13 14 0
4 12 -18 0
-1 -16 19 0
5 -7 -19 0
9 -13 17 0
-10 -17 19 0
7 13 -16 0
-2 -7 -10 0
-5 12 -14 0
-10 11 -16 0
-6 -11 20 0
-9 17 -19 0
-5 8 -15 0
-5 7 13 0
